LPs/24_8_12/CW_24_8_12a16smaller495.lp
Maximize
 +1 y1 +1 y2 +1 y4 +1 y6 +1 y10
Subject To
 +3 +1 y2 +-1 y6 +-3 y10 >= 0
 +198 +14 y2 +-9 y4 +14 y6 +198 y10 >= 0
 +165 +-1 y2 +1 y6 +-165 y10 >= 0
 +10890 +-142 y2 +75 y4 +-142 y6 +10890 y10 >= 0
 +1 +-1 y1 >=0
 +-1 +y1 >=0
#a16 <= 495 - 2/2576
+1275118 +-2576 y6 >=0


