LPs/24_8_12/CW_24_8_12a16smaller495.result
SDPA-GMP start at Fri Apr 20 13:19:57 2018
data      is CW_24_8_12a16smaller495.dat-s
parameter is ./param.sdpa
out       is CW_24_8_12a16smaller495.result
DENSE computation
   mu      thetaP  thetaD  objP      objD      alphaP  alphaD  beta 
 0 1.0e+10 1.0e+00 1.0e+00 +0.00e+00 -1.29e+11 8.4e-01 9.0e-01 2.00e-01
 1 1.8e+09 1.6e-01 1.0e-01 +1.94e+04 -1.29e+10 8.5e-01 8.9e-01 2.00e-01
 2 3.4e+08 2.3e-02 1.1e-02 +1.62e+03 -1.36e+09 8.8e-01 8.3e-01 2.00e-01
 3 5.8e+07 2.8e-03 1.8e-03 -1.43e+03 -2.36e+08 9.0e-01 5.7e-01 2.00e-01
 4 1.9e+07 2.8e-04 7.8e-04 -6.88e+01 -1.00e+08 9.0e-01 8.8e-01 2.00e-01
 5 2.9e+06 2.8e-05 9.1e-05 +1.13e+03 -1.17e+07 9.0e-01 8.8e-01 2.00e-01
 6 4.7e+05 2.8e-06 1.1e-05 +2.28e+03 -1.44e+06 9.0e-01 9.0e-01 2.00e-01
 7 6.5e+04 2.8e-07 1.1e-06 +3.74e+03 -1.47e+05 9.0e-01 9.1e-01 2.00e-01
 8 9.0e+03 2.8e-08 1.0e-07 +5.51e+03 -1.54e+04 9.0e-01 1.0e+00 2.00e-01
 9 1.5e+03 2.8e-09 3.5e-161 +5.72e+03 -2.58e+03 9.0e-01 9.0e-01 2.00e-01
10 3.5e+02 2.8e-10 3.2e-160 -4.19e+02 -2.58e+03 9.0e-01 9.0e-01 2.00e-01
11 8.4e+01 2.8e-11 1.6e-159 -2.04e+03 -2.58e+03 9.0e-01 9.0e-01 2.00e-01
12 2.0e+01 2.8e-12 1.2e-158 -2.45e+03 -2.58e+03 9.0e-01 9.0e-01 2.00e-01
13 4.8e+00 2.8e-13 3.0e-157 -2.55e+03 -2.58e+03 9.0e-01 9.0e-01 2.00e-01
14 1.1e+00 2.8e-14 3.0e-157 -2.57e+03 -2.58e+03 9.0e-01 9.0e-01 2.00e-01
15 2.7e-01 2.8e-15 3.0e-158 -2.57e+03 -2.58e+03 9.0e-01 9.0e+01 2.00e-01
16 3.4e-01 2.8e-16 2.7e-156 -2.58e+03 -2.58e+03 9.0e-01 9.0e-01 2.00e-01
17 8.2e-02 2.8e-17 2.7e-157 -2.58e+03 -2.58e+03 9.0e-01 9.0e+01 2.00e-01
18 1.0e-01 2.8e-18 2.4e-155 -2.58e+03 -2.58e+03 9.0e-01 9.0e-01 2.00e-01
19 2.5e-02 2.8e-19 2.4e-156 -2.58e+03 -2.58e+03 9.0e-01 7.8e+01 2.00e-01
20 2.7e-02 2.8e-20 2.0e-154 -2.58e+03 -2.58e+03 9.0e-01 9.0e-01 2.00e-01
21 6.6e-03 2.8e-21 4.0e-157 -2.58e+03 -2.58e+03 9.0e-01 4.3e+01 2.00e-01
22 4.5e-03 2.8e-22 1.0e-152 -2.58e+03 -2.58e+03 9.0e-01 9.0e-01 2.00e-01
23 1.1e-03 2.8e-23 3.6e-152 -2.58e+03 -2.58e+03 9.0e-01 1.4e+00 2.00e-01
24 2.1e-04 2.8e-24 7.1e-151 -2.58e+03 -2.58e+03 9.0e-01 2.7e+00 2.00e-01
25 4.7e-05 2.8e-25 2.2e-149 -2.58e+03 -2.58e+03 9.0e-01 7.9e+00 2.00e-01
26 1.4e-05 2.8e-26 1.5e-148 -2.58e+03 -2.58e+03 9.0e-01 9.0e-01 2.00e-01
27 3.3e-06 2.8e-27 1.5e-149 -2.58e+03 -2.58e+03 9.0e-01 1.2e+00 2.00e-01
28 7.0e-07 2.8e-28 3.2e-150 -2.58e+03 -2.58e+03 9.0e-01 2.0e+00 2.00e-01
29 1.6e-07 2.8e-29 3.2e-150 -2.58e+03 -2.58e+03 9.0e-01 9.0e-01 2.00e-01
30 3.8e-08 2.8e-30 3.2e-151 -2.58e+03 -2.58e+03 9.0e-01 1.2e+00 2.00e-01
31 8.2e-09 2.8e-31 5.9e-152 -2.58e+03 -2.58e+03 9.0e-01 1.9e+00 2.00e-01
32 1.8e-09 2.8e-32 5.7e-152 -2.58e+03 -2.58e+03 9.0e-01 9.0e-01 2.00e-01
33 4.4e-10 2.8e-33 5.9e-153 -2.58e+03 -2.58e+03 9.0e-01 1.2e+00 2.00e-01
34 9.5e-11 2.8e-34 8.7e-154 -2.58e+03 -2.58e+03 9.0e-01 1.9e+00 2.00e-01
35 2.1e-11 2.8e-35 9.7e-154 -2.58e+03 -2.58e+03 9.0e-01 9.0e-01 2.00e-01
36 5.1e-12 2.8e-36 5.9e-155 -2.58e+03 -2.58e+03 9.0e-01 1.2e+00 2.00e-01
37 1.1e-12 2.8e-37 1.6e-152 -2.58e+03 -2.58e+03 9.0e-01 1.9e+00 2.00e-01
38 2.5e-13 2.8e-38 2.1e-162 -2.58e+03 -2.58e+03 9.0e-01 9.0e-01 2.00e-01
39 5.9e-14 2.8e-39 1.3e-161 -2.58e+03 -2.58e+03 9.0e-01 1.2e+00 2.00e-01
40 1.3e-14 2.8e-40 2.1e-161 -2.58e+03 -2.58e+03 9.0e-01 1.9e+00 2.00e-01
41 2.9e-15 2.8e-41 2.5e-144 -2.58e+03 -2.58e+03 9.0e-01 9.0e-01 2.00e-01
42 6.9e-16 2.8e-42 4.4e-161 -2.58e+03 -2.58e+03 9.0e-01 1.2e+00 2.00e-01
43 1.5e-16 2.8e-43 1.3e-144 -2.58e+03 -2.58e+03 9.0e-01 1.9e+00 2.00e-01
44 3.3e-17 2.8e-44 6.3e-144 -2.58e+03 -2.58e+03 9.0e-01 9.0e-01 2.00e-01
45 8.0e-18 2.8e-45 1.3e-144 -2.58e+03 -2.58e+03 9.0e-01 1.2e+00 2.00e-01
46 1.7e-18 2.8e-46 2.0e-143 -2.58e+03 -2.58e+03 9.0e-01 1.9e+00 2.00e-01
47 3.9e-19 2.8e-47 1.5e-142 -2.58e+03 -2.58e+03 9.0e-01 9.0e-01 2.00e-01
48 9.3e-20 2.8e-48 1.1e-141 -2.58e+03 -2.58e+03 9.0e-01 1.2e+00 2.00e-01
49 2.0e-20 2.8e-49 2.1e-142 -2.58e+03 -2.58e+03 9.0e-01 1.9e+00 2.00e-01
50 4.5e-21 2.8e-50 1.9e-142 -2.58e+03 -2.58e+03 9.0e-01 9.0e-01 2.00e-01
51 1.1e-21 2.8e-51 1.8e-143 -2.58e+03 -2.58e+03 9.0e-01 1.2e+00 2.00e-01
52 2.3e-22 2.8e-52 3.8e-144 -2.58e+03 -2.58e+03 9.0e-01 1.9e+00 2.00e-01
53 5.2e-23 2.8e-53 5.0e-144 -2.58e+03 -2.58e+03 9.0e-01 9.0e-01 2.00e-01
54 1.3e-23 2.8e-54 1.3e-144 -2.58e+03 -2.58e+03 9.0e-01 1.2e+00 2.00e-01
55 2.7e-24 2.8e-55 1.3e-144 -2.58e+03 -2.58e+03 9.0e-01 1.9e+00 2.00e-01
56 6.1e-25 2.8e-56 1.3e-144 -2.58e+03 -2.58e+03 9.0e-01 9.0e-01 2.00e-01
57 1.5e-25 2.8e-57 1.3e-144 -2.58e+03 -2.58e+03 9.0e-01 1.2e+00 2.00e-01
58 3.1e-26 2.8e-58 1.7e-142 -2.58e+03 -2.58e+03 9.0e-01 1.9e+00 2.00e-01
59 7.1e-27 2.8e-59 6.2e-142 -2.58e+03 -2.58e+03 9.0e-01 9.0e-01 2.00e-01
60 1.7e-27 2.8e-60 3.5e-141 -2.58e+03 -2.58e+03 9.0e-01 1.2e+00 2.00e-01
61 3.6e-28 2.8e-61 8.4e-140 -2.58e+03 -2.58e+03 9.0e-01 1.9e+00 2.00e-01
62 8.2e-29 2.8e-62 1.6e-138 -2.58e+03 -2.58e+03 9.0e-01 9.0e-01 2.00e-01
63 2.0e-29 2.8e-63 5.2e-138 -2.58e+03 -2.58e+03 9.0e-01 1.2e+00 2.00e-01
64 4.2e-30 2.8e-64 7.7e-136 -2.58e+03 -2.58e+03 9.0e-01 1.9e+00 2.00e-01
65 9.5e-31 2.8e-65 6.9e-136 -2.58e+03 -2.58e+03 9.0e-01 9.0e-01 2.00e-01
66 2.3e-31 2.8e-66 6.9e-137 -2.58e+03 -2.58e+03 9.0e-01 1.2e+00 2.00e-01
67 4.9e-32 2.8e-67 1.3e-137 -2.58e+03 -2.58e+03 9.0e-01 1.9e+00 2.00e-01
68 1.1e-32 2.8e-68 1.2e-137 -2.58e+03 -2.58e+03 9.0e-01 9.0e-01 2.00e-01
69 2.6e-33 2.8e-69 1.2e-138 -2.58e+03 -2.58e+03 9.0e-01 1.2e+00 2.00e-01
70 5.7e-34 2.8e-70 4.1e-139 -2.58e+03 -2.58e+03 9.0e-01 1.9e+00 2.00e-01
71 1.3e-34 2.8e-71 6.3e-138 -2.58e+03 -2.58e+03 9.0e-01 9.0e-01 2.00e-01
72 3.1e-35 2.8e-72 2.3e-137 -2.58e+03 -2.58e+03 9.0e-01 1.2e+00 2.00e-01
73 6.6e-36 2.8e-73 4.3e-137 -2.58e+03 -2.58e+03 9.0e-01 1.9e+00 2.00e-01
74 1.5e-36 2.8e-74 2.9e-135 -2.58e+03 -2.58e+03 9.0e-01 9.0e-01 2.00e-01
75 3.5e-37 2.8e-75 1.5e-134 -2.58e+03 -2.58e+03 9.0e-01 1.2e+00 2.00e-01
76 7.7e-38 2.8e-76 1.7e-133 -2.58e+03 -2.58e+03 9.0e-01 1.9e+00 2.00e-01
77 1.7e-38 2.8e-77 1.0e-131 -2.58e+03 -2.58e+03 9.0e-01 9.0e-01 2.00e-01
78 4.1e-39 2.8e-78 1.0e-131 -2.58e+03 -2.58e+03 9.0e-01 1.2e+00 2.00e-01
79 8.9e-40 2.8e-79 1.9e-132 -2.58e+03 -2.58e+03 9.0e-01 1.9e+00 2.00e-01
80 2.0e-40 2.8e-80 1.2e-132 -2.58e+03 -2.58e+03 9.0e-01 9.0e-01 2.00e-01
81 4.8e-41 2.8e-81 5.0e-132 -2.58e+03 -2.58e+03 9.0e-01 1.2e+00 2.00e-01
82 1.0e-41 2.8e-82 7.0e-131 -2.58e+03 -2.58e+03 9.0e-01 1.9e+00 2.00e-01
83 2.3e-42 2.8e-83 3.7e-129 -2.58e+03 -2.58e+03 9.0e-01 9.0e-01 2.00e-01
84 5.5e-43 2.8e-84 3.7e-130 -2.58e+03 -2.58e+03 9.0e-01 1.2e+00 2.00e-01
85 1.2e-43 2.8e-85 6.9e-131 -2.58e+03 -2.58e+03 9.0e-01 1.9e+00 2.00e-01
86 2.7e-44 2.8e-86 5.7e-131 -2.58e+03 -2.58e+03 9.0e-01 9.0e-01 2.00e-01
87 6.4e-45 2.8e-87 4.7e-132 -2.58e+03 -2.58e+03 9.0e-01 1.2e+00 2.00e-01
88 1.4e-45 2.8e-88 1.4e-132 -2.58e+03 -2.58e+03 9.0e-01 1.9e+00 2.00e-01
89 3.1e-46 2.8e-89 1.2e-132 -2.58e+03 -2.58e+03 9.0e-01 9.0e-01 2.00e-01
90 7.5e-47 2.8e-90 1.9e-134 -2.58e+03 -2.58e+03 9.0e-01 1.2e+00 2.00e-01
91 1.6e-47 2.8e-91 4.5e-134 -2.58e+03 -2.58e+03 9.0e-01 1.9e+00 2.00e-01
92 3.6e-48 2.8e-92 1.4e-161 -2.58e+03 -2.58e+03 9.0e-01 9.0e-01 2.00e-01
93 8.7e-49 2.8e-93 2.1e-161 -2.58e+03 -2.58e+03 9.0e-01 1.2e+00 2.00e-01
94 1.9e-49 2.8e-94 9.3e-162 -2.58e+03 -2.58e+03 9.0e-01 1.9e+00 2.00e-01
95 4.2e-50 2.8e-95 2.0e-161 -2.58e+03 -2.58e+03 9.0e-01 9.0e-01 2.00e-01
96 1.0e-50 2.8e-96 2.0e-161 -2.58e+03 -2.58e+03 9.0e-01 1.2e+00 2.00e-01
97 2.2e-51 2.8e-97 2.3e-161 -2.58e+03 -2.58e+03 9.0e-01 1.9e+00 2.00e-01
98 4.9e-52 2.8e-98 9.6e-162 -2.58e+03 -2.58e+03 9.0e-01 9.0e-01 2.00e-01
99 1.2e-52 2.8e-99 1.2e-161 -2.58e+03 -2.58e+03 9.0e-01 1.2e+00 2.00e-01
100 2.5e-53 2.8e-100 2.5e-161 -2.58e+03 -2.58e+03 9.0e-01 1.9e+00 2.00e-01
101 5.7e-54 2.8e-101 4.9e-124 -2.58e+03 -2.58e+03 9.0e-01 9.0e-01 2.00e-01
102 1.4e-54 2.8e-102 9.3e-124 -2.58e+03 -2.58e+03 9.0e-01 1.2e+00 2.00e-01
103 2.9e-55 2.8e-103 2.1e-124 -2.58e+03 -2.58e+03 9.0e-01 1.9e+00 2.00e-01
104 6.6e-56 2.8e-104 7.2e-124 -2.58e+03 -2.58e+03 9.0e-01 9.0e-01 2.00e-01
105 1.6e-56 2.8e-105 7.4e-124 -2.58e+03 -2.58e+03 9.0e-01 1.2e+00 2.00e-01
106 3.4e-57 2.8e-106 7.8e-123 -2.58e+03 -2.58e+03 9.0e-01 1.9e+00 2.00e-01
107 7.6e-58 2.8e-107 4.5e-121 -2.58e+03 -2.58e+03 9.7e-01 1.1e+00 1.00e-01
108 8.5e-59 2.8e-107 5.4e-122 -2.58e+03 -2.58e+03 9.7e-01 1.0e+00 1.00e-01
109 9.6e-60 2.8e-107 1.3e-123 -2.58e+03 -2.58e+03 9.8e-01 1.0e+00 1.00e-01
110 9.7e-61 2.8e-107 2.3e-125 -2.58e+03 -2.58e+03 9.9e-01 1.0e+00 1.00e-01
111 9.8e-62 2.8e-107 9.1e-163 -2.58e+03 -2.58e+03 9.9e-01 1.0e+00 1.00e-01
112 9.8e-63 2.8e-107 1.6e-161 -2.58e+03 -2.58e+03 9.9e-01 1.0e+00 1.00e-01
113 9.8e-64 2.8e-107 2.3e-126 -2.58e+03 -2.58e+03 9.9e-01 1.0e+00 1.00e-01
114 9.8e-65 2.8e-107 5.8e-128 -2.58e+03 -2.58e+03 9.9e-01 1.0e+00 1.00e-01
115 9.8e-66 2.8e-107 1.5e-129 -2.58e+03 -2.58e+03 9.9e-01 1.0e+00 1.00e-01
116 9.8e-67 2.8e-107 3.7e-131 -2.58e+03 -2.58e+03 9.9e-01 1.0e+00 1.00e-01
117 9.8e-68 2.8e-107 9.3e-133 -2.58e+03 -2.58e+03 9.9e-01 1.0e+00 1.00e-01
118 9.8e-69 2.8e-107 2.3e-134 -2.58e+03 -2.58e+03 9.9e-01 1.0e+00 1.00e-01
119 9.8e-70 2.8e-107 5.9e-136 -2.58e+03 -2.58e+03 9.9e-01 1.0e+00 1.00e-01
120 9.8e-71 2.8e-107 1.5e-137 -2.58e+03 -2.58e+03 9.9e-01 1.0e+00 1.00e-01
121 9.8e-72 2.8e-107 3.8e-139 -2.58e+03 -2.58e+03 9.9e-01 1.0e+00 1.00e-01
122 9.8e-73 2.8e-107 9.5e-141 -2.58e+03 -2.58e+03 9.9e-01 1.0e+00 1.00e-01
123 9.8e-74 2.8e-107 2.4e-142 -2.58e+03 -2.58e+03 9.9e-01 1.0e+00 1.00e-01
124 9.8e-75 2.8e-107 5.0e-144 -2.58e+03 -2.58e+03 9.9e-01 1.0e+00 1.00e-01
125 9.8e-76 2.8e-107 8.2e-162 -2.58e+03 -2.58e+03 9.9e-01 1.0e+00 1.00e-01
126 9.8e-77 2.8e-107 3.4e-161 -2.58e+03 -2.58e+03 9.9e-01 1.0e+00 1.00e-01
127 9.8e-78 2.8e-107 5.9e-162 -2.58e+03 -2.58e+03 9.9e-01 1.0e+00 1.00e-01
128 9.8e-79 2.8e-107 2.3e-161 -2.58e+03 -2.58e+03 9.9e-01 1.0e+00 1.00e-01
129 9.8e-80 2.8e-107 1.8e-162 -2.58e+03 -2.58e+03 9.9e-01 1.0e+00 1.00e-01
130 9.8e-81 2.8e-107 1.1e-161 -2.58e+03 -2.58e+03 9.9e-01 1.0e+00 1.00e-01
131 9.8e-82 2.8e-107 1.1e-161 -2.58e+03 -2.58e+03 9.9e-01 1.0e+00 1.00e-01
132 9.8e-83 2.8e-107 8.9e-162 -2.58e+03 -2.58e+03 9.9e-01 1.0e+00 1.00e-01
133 9.8e-84 2.8e-107 1.5e-145 -2.58e+03 -2.58e+03 9.9e-01 1.0e+00 1.00e-01
134 9.8e-85 2.8e-107 3.9e-147 -2.58e+03 -2.58e+03 9.9e-01 1.0e+00 1.00e-01
135 9.8e-86 2.8e-107 9.8e-149 -2.58e+03 -2.58e+03 9.9e-01 1.0e+00 1.00e-01
136 9.8e-87 2.8e-107 2.5e-150 -2.58e+03 -2.58e+03 9.9e-01 1.0e+00 1.00e-01
137 9.8e-88 2.8e-107 6.2e-152 -2.58e+03 -2.58e+03 9.9e-01 1.0e+00 1.00e-01
138 9.8e-89 2.8e-107 1.6e-153 -2.58e+03 -2.58e+03 9.9e-01 1.0e+00 1.00e-01
139 9.8e-90 2.8e-107 4.0e-155 -2.58e+03 -2.58e+03 9.9e-01 1.0e+00 1.00e-01
140 9.8e-91 2.8e-107 1.0e-156 -2.58e+03 -2.58e+03 9.9e-01 1.0e+00 1.00e-01
141 9.8e-92 2.8e-107 2.5e-158 -2.58e+03 -2.58e+03 9.9e-01 1.0e+00 1.00e-01
142 9.8e-93 2.8e-107 6.4e-160 -2.58e+03 -2.58e+03 9.9e-01 1.0e+00 1.00e-01
143 9.8e-94 2.8e-107 1.6e-161 -2.58e+03 -2.58e+03 9.9e-01 1.0e+00 1.00e-01
144 9.8e-95 2.8e-107 2.4e-162 -2.58e+03 -2.58e+03 9.9e-01 1.0e+00 1.00e-01
145 9.8e-96 2.8e-107 3.4e-162 -2.58e+03 -2.58e+03 9.9e-01 1.0e+00 1.00e-01
146 9.8e-97 2.8e-107 2.3e-162 -2.58e+03 -2.58e+03 9.9e-01 1.0e+00 1.00e-01
147 9.8e-98 2.8e-107 2.0e-161 -2.58e+03 -2.58e+03 9.9e-01 1.0e+00 1.00e-01
148 9.8e-99 2.8e-107 5.9e-162 -2.58e+03 -2.58e+03 9.9e-01 1.0e+00 1.00e-01

phase.value = pdOPT     
   Iteration = 148
          mu = 9.7767979033341645e-99
relative gap = 2.0349413586516951e-101
         gap = 6.8437585323339152e-98
      digits = 1.0069144810141711e+02
objValPrimal = -2.5759969696969697e+03
objValDual   = -2.5759969696969697e+03
p.feas.error = 3.2581331247792058e-101
d.feas.error = 6.4799853463163065e-153
relative eps = 7.4583407312002067e-155
total time   = 0.010


Parameters are
maxIteration =    1000
epsilonStar  = 1.000e-100
lambdaStar   = 1.000e+05
omegaStar    = 2.000e+00
lowerBound   = -1.000e+05
upperBound   = 1.000e+05
betaStar     = 1.000e-01
betaBar      = 2.000e-01
gammaStar    = 9.000e-01
epsilonDash  = 1.000e-100
precision    =    512

                         Time(sec)  Ratio(% : MainLoop) 
 Predictor time  =       0.000000,  0.000000
 Corrector time  =       0.000000,  0.000000
 Make bMat time  =       0.000000,  0.000000
 Make bDia time  =       0.000000,  0.000000
 Make bF1  time  =       0.000000,  0.000000
 Make bF2  time  =       0.000000,  0.000000
 Make bF3  time  =       0.000000,  0.000000
 Make bPRE time  =       0.000000,  0.000000
 Make rMat time  =       0.000000,  0.000000
 Make gVec Mul   =       0.000000,  0.000000
 Make gVec time  =       0.000000,  0.000000
 Cholesky bMat   =       0.000000,  0.000000
 Ste Pre time    =       0.000000,  0.000000
 Ste Cor time    =       0.000000,  0.000000
 solve           =       0.000000,  0.000000
 sumDz           =       0.000000,  0.000000
 makedX          =       0.000000,  0.000000
 symmetriseDx    =       0.000000,  0.000000
 makedXdZ        =       0.000000,  0.000000
 xMatTime        =       0.000000,  0.000000
 zMatTime        =       0.000000,  0.000000
 invzMatTime     =       0.000000,  0.000000
 xMatzMatTime    =       0.000000,  0.000000
 EigxMatTime     =       0.000000,  0.000000
 EigzMatTime     =       0.000000,  0.000000
 EigxMatzMatTime =       0.000000,  0.000000
 updateRes       =       0.000000,  0.000000
 EigTime         =       0.000000,  0.000000
 sub_total_bMat  =       0.010000,  100.000000
 Main Loop       =       0.010000,  100.000000
 File Check      =       0.000000,  0.000000
 File Change     =       0.000000,  0.000000
 File Read       =       0.000000,  0.000000
 Total           =       0.010000,  100.000000

xVec = 
{+1.00000000000000000000000000000000000000000000000000000000000000000000000000000000000000000000000000000000007619181318067975736360437096435001868929892280924e+00,+4.94999611801242236024844720496894409937888198757763975155279503105590062111801242236024844720496894396705676519313727771987976660500333274336758056785901311e+02,+1.58399813664596273291925465838509316770186335403726708074534161490683229813664596273291925465838509313933649141950898459256182244506711833779973909326417141e+03,+4.9499922360248447204968944099378881987577639751552795031055900621118012422360248447204968944099378881703049682851835292731457076888709247262124320509394943e+02,+9.99997647280255975908149821193299454169019386410690758516845473367212497647280255975908149821193299482648815110901714902219112704538674347268178528215356399e-01}
xMat = 
{
{+3.95256916996047430830039525691699604743083003952569169960474308300395256916996047430830039525681230005763099864826295301578589082079403949527760222644312014e-04}
{+3.58452365970924134559605130674207161781454636734957913960079098454136506283271256724143190831873799720526451445590579629314239529430086354198324605266747664e-98}
{+5.69053384192971666706466955160712170448247492528322775308477973803463416462717815047733365629145847082098047829122604256000121662454502364904627620882816674e-99}
{+4.65748308293324502596677569454613653351488716961642640714015818558885410214482285208943529536558323488741821657595787947153643697373465798541053612093762924e-97}
{+2.77249689739825004045398229521242930902299121229282991107616275659099797011666236446337269883066261180343013487218241697686337934057696924420753520377945617e-102}
{+2.77270473304091579162703031408045093786283866843725576624714873992072845904635052017133610652405541387408873283943729581970636978752867003214103718004167895e-102}
{+7.32940758840547506717929438246997275537342770376479734597319630266557660006387279804869975867000527495794794383592613804270386896529383666031423888433550736e-96}
}
yMat = 
{
{+2.02542803899997960032945775196853308726451138835306898794033082433069622047634961153002081552062902072972667378398238833038453135837499102133035604923917163e-95}
{+3.098086124401913875598086124401913875598086124401913875598086124401913875598086124401913875598103083727599282125840079191703085803362262655165635745114333e-01}
{+1.95151515151515151515151515151515151515151515151515151515151515151515151515151515151515151515153025016053315136308124383657528057998385060004651075669797947e+00}
{+2.3843700159489633173843700159489633173843700159489633173843700159489633173843700159489633173843903671397858052176747616967103696307013818528654295608038662e-02}
{+2.88791330261093245329949560565227337419937674423341552020053027979326725169826130311750431166704091456105172252000965159947516955535375259895936592941390527e+03}
{+2.88691330261093245329949560565227337419937674423341552020053027979326725169826130311750431166704091456105172252000965159947516955535375259895936592941390527e+03}
{+1.51515151515151515151515151515151515151515151515151515151515151515151515151515151515151515151514751232930368910487418420734130065924783034639982924442436035e-03}
}
    main loop time = 0.010000
        total time = 0.010000
  file   read time = 0.000000
